p cnf 15 27
3 -4 5 0
2 12 0
2 0
-6 12 -3 6 0
-8 -7 6 -9 0
-3 10 5 13 0
7 0
10 14 15 0
-7 0
-6 -3 0
4 15 0
-7 0
-7 1 6 15 0
-12 13 7 0
-1 0
2 -4 -1 6 0
8 -6 3 -11 0
-6 -12 0
5 0
-9 0
-8 0
3 15 0
-2 0
-13 -1 0
6 14 0
-7 0
9 -5 -9 0
